(set-logic QF_S)
(declare-fun _var_0xINPUT_125664_() String)
(declare-fun __woorpje_diseq_pref0_() String)
(declare-fun __woorpje_diseq_suf_l0_() String)
(declare-fun __woorpje_diseq_suf_r0_() String)
(assert (=(str.++  "pg16YIpN5r" "")(str.++ __woorpje_diseq_pref0_  "N" __woorpje_diseq_suf_l0_  "")) )
(assert (=(str.++ _var_0xINPUT_125664_  "")(str.++ __woorpje_diseq_pref0_  "r" __woorpje_diseq_suf_r0_  "")) )
(check-sat)
